CPXPARAM_TimeLimit                               3600
CPXPARAM_Read_DataCheck                          1
CPXPARAM_MIP_Strategy_HeuristicFreq              -1
Parallel mode: deterministic, using up to 8 threads for concurrent optimization.
Tried aggregator 1 time.
LP Presolve eliminated 27459 rows and 20475 columns.
Reduced LP has 23601 rows, 1801 columns, and 70077 nonzeros.
Presolve time = 0.02 sec. (25.06 ticks)

Iteration log . . .
Iteration:     1   Dual objective     =           963.000000
Perturbation started.
Iteration:   196   Dual objective     =           963.000000
Initializing dual steep norms . . .
Iteration:   197   Dual objective     =           963.000217
Iteration:   688   Dual objective     =           963.011810
Iteration:  1030   Dual objective     =           963.013716
Iteration:  1389   Dual objective     =           963.014346
Iteration:  1656   Dual objective     =           963.015098
Iteration:  2011   Dual objective     =           963.015365
Iteration:  2360   Dual objective     =           963.016135
Iteration:  2697   Dual objective     =           963.016329
Iteration:  3080   Dual objective     =           963.016409
Iteration:  3424   Dual objective     =           963.016472
Iteration:  3809   Dual objective     =           963.016486
Removing perturbation.

Dual simplex solved model.

